* #variable= 50 #constraint= 1
min: -813 x1 -311 x2 -945 x3 -112 x4 -7 x5 -617 x6 -992 x7 -829 x8 -561 x9 -875 x10 -191 x11 -482 x12 -578 x13 -395 x14 -889 x15 -789 x16 -474 x17 -504 x18 -943 x19 -780 x20 -673 x21 -176 x22 -784 x23 -84 x24 -617 x25 -988 x26 -809 x27 -235 x28 -546 x29 -40 x30 -738 x31 -21 x32 -98 x33 -599 x34 -413 x35 -651 x36 -918 x37 -692 x38 -603 x39 -923 x40 -306 x41 -171 x42 -821 x43 -672 x44 -345 x45 -653 x46 -268 x47 -329 x48 -722 x49 -938 x50 ;
-813 x1 -311 x2 -945 x3 -112 x4 -7 x5 -617 x6 -992 x7 -829 x8 -561 x9 -875 x10 -191 x11 -482 x12 -578 x13 -395 x14 -889 x15 -789 x16 -474 x17 -504 x18 -943 x19 -780 x20 -673 x21 -176 x22 -784 x23 -84 x24 -617 x25 -988 x26 -809 x27 -235 x28 -546 x29 -40 x30 -738 x31 -21 x32 -98 x33 -599 x34 -413 x35 -651 x36 -918 x37 -692 x38 -603 x39 -923 x40 -306 x41 -171 x42 -821 x43 -672 x44 -345 x45 -653 x46 -268 x47 -329 x48 -722 x49 -938 x50 >= -13946 ;